Maximize

8.0 x_0_0 + 5.0 x_0_1 + 2.0 x_0_2 + 0.0 x_0_3 + 10.0 x_0_4 + 6.0 x_0_5 + 7.0 x_0_6 + 8.0 x_1_0 + 5.0 x_1_1 + 2.0 x_1_2 + 0.0 x_1_3 + 5.0 x_1_4 + 6.0 x_1_5 + 7.0 x_1_6 + 8.0 x_2_0 + 5.0 x_2_1 + 2.0 x_2_2 + 0.0 x_2_3 + 5.0 x_2_4 + 6.0 x_2_5 + 7.0 x_2_6 + 8.0 x_3_0 + 5.0 x_3_1 + 2.0 x_3_2 + 0.0 x_3_3 + 5.0 x_3_4 + 6.0 x_3_5 + 7.0 x_3_6 + 8.0 x_4_0 + 5.0 x_4_1 + 2.0 x_4_2 + 10.0 x_4_3 + 5.0 x_4_4 + 6.0 x_4_5 + 7.0 x_4_6 + 8.0 x_5_0 + 5.0 x_5_1 + 2.0 x_5_2 + 0.0 x_5_3 + 5.0 x_5_4 + 6.0 x_5_5 + 7.0 x_5_6 + 8.0 x_6_0 + 5.0 x_6_1 + 2.0 x_6_2 + 0.0 x_6_3 + 5.0 x_6_4 + 6.0 x_6_5 + 7.0 x_6_6 + 8.0 x_7_0 + 5.0 x_7_1 + 2.0 x_7_2 + 0.0 x_7_3 + 5.0 x_7_4 + 6.0 x_7_5 + 10.0 x_7_6 + 8.0 x_8_0 + 5.0 x_8_1 + 2.0 x_8_2 + 0.0 x_8_3 + 5.0 x_8_4 + 6.0 x_8_5 + 7.0 x_8_6 + 8.0 x_9_0 + 5.0 x_9_1 + 10.0 x_9_2 + 0.0 x_9_3 + 5.0 x_9_4 + 6.0 x_9_5 + 7.0 x_9_6 + 8.0 x_10_0 + 5.0 x_10_1 + 2.0 x_10_2 + 0.0 x_10_3 + 5.0 x_10_4 + 6.0 x_10_5 + 7.0 x_10_6 + 8.0 x_11_0 + 5.0 x_11_1 + 2.0 x_11_2 + 0.0 x_11_3 + 5.0 x_11_4 + 6.0 x_11_5 + 7.0 x_11_6 + 8.0 x_12_0 + 5.0 x_12_1 + 2.0 x_12_2 + 0.0 x_12_3 + 5.0 x_12_4 + 6.0 x_12_5 + 7.0 x_12_6 + 8.0 x_13_0 + 5.0 x_13_1 + 2.0 x_13_2 + 0.0 x_13_3 + 5.0 x_13_4 + 6.0 x_13_5 + 7.0 x_13_6 + 8.0 x_14_0 + 10.0 x_14_1 + 2.0 x_14_2 + 0.0 x_14_3 + 5.0 x_14_4 + 6.0 x_14_5 + 7.0 x_14_6 + 8.0 x_15_0 + 5.0 x_15_1 + 2.0 x_15_2 + 0.0 x_15_3 + 5.0 x_15_4 + 6.0 x_15_5 + 7.0 x_15_6 + 8.0 x_16_0 + 5.0 x_16_1 + 2.0 x_16_2 + 0.0 x_16_3 + 5.0 x_16_4 + 6.0 x_16_5 + 7.0 x_16_6 + 8.0 x_17_0 + 5.0 x_17_1 + 2.0 x_17_2 + 0.0 x_17_3 + 5.0 x_17_4 + 10.0 x_17_5 + 7.0 x_17_6 + 8.0 x_18_0 + 5.0 x_18_1 + 2.0 x_18_2 + 0.0 x_18_3 + 5.0 x_18_4 + 6.0 x_18_5 + 7.0 x_18_6 + 10.0 x_19_0 + 5.0 x_19_1 + 2.0 x_19_2 + 0.0 x_19_3 + 5.0 x_19_4 + 6.0 x_19_5 + 7.0 x_19_6


Subject To

a0: x_0_0 + x_1_0 + x_2_0 + x_3_0 + x_4_0 + x_5_0 + x_6_0 + x_7_0 + x_8_0 + x_9_0 + x_10_0 + x_11_0 + x_12_0 + x_13_0 + x_14_0 + x_15_0 + x_16_0 + x_17_0 + x_18_0 + x_19_0 = 1
a1: x_0_1 + x_1_1 + x_2_1 + x_3_1 + x_4_1 + x_5_1 + x_6_1 + x_7_1 + x_8_1 + x_9_1 + x_10_1 + x_11_1 + x_12_1 + x_13_1 + x_14_1 + x_15_1 + x_16_1 + x_17_1 + x_18_1 + x_19_1 = 1
a2: x_0_2 + x_1_2 + x_2_2 + x_3_2 + x_4_2 + x_5_2 + x_6_2 + x_7_2 + x_8_2 + x_9_2 + x_10_2 + x_11_2 + x_12_2 + x_13_2 + x_14_2 + x_15_2 + x_16_2 + x_17_2 + x_18_2 + x_19_2 = 1
a3: x_0_3 + x_1_3 + x_2_3 + x_3_3 + x_4_3 + x_5_3 + x_6_3 + x_7_3 + x_8_3 + x_9_3 + x_10_3 + x_11_3 + x_12_3 + x_13_3 + x_14_3 + x_15_3 + x_16_3 + x_17_3 + x_18_3 + x_19_3 = 1
a4: x_0_4 + x_1_4 + x_2_4 + x_3_4 + x_4_4 + x_5_4 + x_6_4 + x_7_4 + x_8_4 + x_9_4 + x_10_4 + x_11_4 + x_12_4 + x_13_4 + x_14_4 + x_15_4 + x_16_4 + x_17_4 + x_18_4 + x_19_4 = 1
a5: x_0_5 + x_1_5 + x_2_5 + x_3_5 + x_4_5 + x_5_5 + x_6_5 + x_7_5 + x_8_5 + x_9_5 + x_10_5 + x_11_5 + x_12_5 + x_13_5 + x_14_5 + x_15_5 + x_16_5 + x_17_5 + x_18_5 + x_19_5 = 1
a6: x_0_6 + x_1_6 + x_2_6 + x_3_6 + x_4_6 + x_5_6 + x_6_6 + x_7_6 + x_8_6 + x_9_6 + x_10_6 + x_11_6 + x_12_6 + x_13_6 + x_14_6 + x_15_6 + x_16_6 + x_17_6 + x_18_6 + x_19_6 = 1
b0: x_0_0 + x_0_1 + x_0_2 + x_0_3 + x_0_4 + x_0_5 + x_0_6 <= 1
b1: x_1_0 + x_1_1 + x_1_2 + x_1_3 + x_1_4 + x_1_5 + x_1_6 <= 1
b2: x_2_0 + x_2_1 + x_2_2 + x_2_3 + x_2_4 + x_2_5 + x_2_6 <= 1
b3: x_3_0 + x_3_1 + x_3_2 + x_3_3 + x_3_4 + x_3_5 + x_3_6 <= 1
b4: x_4_0 + x_4_1 + x_4_2 + x_4_3 + x_4_4 + x_4_5 + x_4_6 <= 1
b5: x_5_0 + x_5_1 + x_5_2 + x_5_3 + x_5_4 + x_5_5 + x_5_6 <= 1
b6: x_6_0 + x_6_1 + x_6_2 + x_6_3 + x_6_4 + x_6_5 + x_6_6 <= 1
b7: x_7_0 + x_7_1 + x_7_2 + x_7_3 + x_7_4 + x_7_5 + x_7_6 <= 1
b8: x_8_0 + x_8_1 + x_8_2 + x_8_3 + x_8_4 + x_8_5 + x_8_6 <= 1
b9: x_9_0 + x_9_1 + x_9_2 + x_9_3 + x_9_4 + x_9_5 + x_9_6 <= 1
b10: x_10_0 + x_10_1 + x_10_2 + x_10_3 + x_10_4 + x_10_5 + x_10_6 <= 1
b11: x_11_0 + x_11_1 + x_11_2 + x_11_3 + x_11_4 + x_11_5 + x_11_6 <= 1
b12: x_12_0 + x_12_1 + x_12_2 + x_12_3 + x_12_4 + x_12_5 + x_12_6 <= 1
b13: x_13_0 + x_13_1 + x_13_2 + x_13_3 + x_13_4 + x_13_5 + x_13_6 <= 1
b14: x_14_0 + x_14_1 + x_14_2 + x_14_3 + x_14_4 + x_14_5 + x_14_6 <= 1
b15: x_15_0 + x_15_1 + x_15_2 + x_15_3 + x_15_4 + x_15_5 + x_15_6 <= 1
b16: x_16_0 + x_16_1 + x_16_2 + x_16_3 + x_16_4 + x_16_5 + x_16_6 <= 1
b17: x_17_0 + x_17_1 + x_17_2 + x_17_3 + x_17_4 + x_17_5 + x_17_6 <= 1
b18: x_18_0 + x_18_1 + x_18_2 + x_18_3 + x_18_4 + x_18_5 + x_18_6 <= 1
b19: x_19_0 + x_19_1 + x_19_2 + x_19_3 + x_19_4 + x_19_5 + x_19_6 <= 1
c0: x_0_1 + x_0_2 + x_0_3 + x_0_5 + x_1_1 + x_1_2 + x_1_3 + x_1_4 + x_1_5 + x_2_1 + x_2_2 + x_2_3 + x_2_4 + x_2_5 + x_3_1 + x_3_2 + x_3_3 + x_3_4 + x_3_5 + x_4_1 + x_4_2 + x_4_4 + x_4_5 + x_5_1 + x_5_2 + x_5_3 + x_5_4 + x_5_5 + x_6_1 + x_6_2 + x_6_3 + x_6_4 + x_6_5 + x_7_1 + x_7_2 + x_7_3 + x_7_4 + x_7_5 + x_8_1 + x_8_2 + x_8_3 + x_8_4 + x_8_5 + x_9_1 + x_9_3 + x_9_4 + x_9_5 + x_10_1 + x_10_2 + x_10_3 + x_10_4 + x_10_5 + x_11_1 + x_11_2 + x_11_3 + x_11_4 + x_11_5 + x_12_1 + x_12_2 + x_12_3 + x_12_4 + x_12_5 + x_13_1 + x_13_2 + x_13_3 + x_13_4 + x_13_5 + x_14_2 + x_14_3 + x_14_4 + x_14_5 + x_15_1 + x_15_2 + x_15_3 + x_15_4 + x_15_5 + x_16_1 + x_16_2 + x_16_3 + x_16_4 + x_16_5 + x_17_1 + x_17_2 + x_17_3 + x_17_4 + x_18_1 + x_18_2 + x_18_3 + x_18_4 + x_18_5 + x_19_1 + x_19_2 + x_19_3 + x_19_4 + x_19_5 = 0




Binary

x_0_0 x_0_1 x_0_2 x_0_3 x_0_4 x_0_5 x_0_6 x_1_0 x_1_1 x_1_2 x_1_3 x_1_4 x_1_5 x_1_6 x_2_0 x_2_1 x_2_2 x_2_3 x_2_4 x_2_5 x_2_6 x_3_0 x_3_1 x_3_2 x_3_3 x_3_4 x_3_5 x_3_6 x_4_0 x_4_1 x_4_2 x_4_3 x_4_4 x_4_5 x_4_6 x_5_0 x_5_1 x_5_2 x_5_3 x_5_4 x_5_5 x_5_6 x_6_0 x_6_1 x_6_2 x_6_3 x_6_4 x_6_5 x_6_6 x_7_0 x_7_1 x_7_2 x_7_3 x_7_4 x_7_5 x_7_6 x_8_0 x_8_1 x_8_2 x_8_3 x_8_4 x_8_5 x_8_6 x_9_0 x_9_1 x_9_2 x_9_3 x_9_4 x_9_5 x_9_6 x_10_0 x_10_1 x_10_2 x_10_3 x_10_4 x_10_5 x_10_6 x_11_0 x_11_1 x_11_2 x_11_3 x_11_4 x_11_5 x_11_6 x_12_0 x_12_1 x_12_2 x_12_3 x_12_4 x_12_5 x_12_6 x_13_0 x_13_1 x_13_2 x_13_3 x_13_4 x_13_5 x_13_6 x_14_0 x_14_1 x_14_2 x_14_3 x_14_4 x_14_5 x_14_6 x_15_0 x_15_1 x_15_2 x_15_3 x_15_4 x_15_5 x_15_6 x_16_0 x_16_1 x_16_2 x_16_3 x_16_4 x_16_5 x_16_6 x_17_0 x_17_1 x_17_2 x_17_3 x_17_4 x_17_5 x_17_6 x_18_0 x_18_1 x_18_2 x_18_3 x_18_4 x_18_5 x_18_6 x_19_0 x_19_1 x_19_2 x_19_3 x_19_4 x_19_5 x_19_6

 


End
